9
9
0 14 35 55 50 39 43 56 12
15
0 41 33 52 38 59 7 29 13 8 27 26 17 57 37
6
0 18 19 15 32 9
7
0 16 20 3 11 4 21
10
0 25 46 40 6 28 31 53 49 30
2
0 51
1
0
7
0 34 24 2 44 1 36
11
0 47 23 58 48 22 10 54 5 45 42
